#insiemi
set I := 1ver 2car 3fru	4azz;	#insieme delle risorse
set J := pro fer cal;

#parametri

#indicizzato dall'indice i
param C :=	1ver 4	2car 10	3fru 7	4azz 3;

param D :=	pro 20	fer 30	cal 10;

param MinRisorsa :=
4azz 3;

#tabella con colonne indicizzate da "i"
#e righe indicizzate da "j"
#e quindi si scrive trasposta con (tr)

param A (tr) : 1ver 	2car 	3fru 	4azz :=
pro				5		15		4		10
fer				6		10		5		15
cal				5		3		12		2
;


